DIMENSION: 16
EDGE_WEIGHT_TYPE: EXPLICIT
EDGE_WEIGHT_FORMAT: FULL_MATRIX
EDGE_WEIGHT_SECTION:
32767 32767 32767 32767 43 46 55 32767 32767 32767 1 32767 43 32767 78 32767 
32767 32767 92 32767 32767 98 42 30 43 32767 32767 83 32767 32767 32767 87 
32767 92 32767 53 68 32767 32767 17 95 1 32767 83 32767 32767 32767 47 
32767 32767 53 32767 32767 39 6 32767 3 3 32767 32767 32767 56 32767 32767 
43 32767 68 32767 32767 93 32767 95 32767 32767 32767 12 32767 32767 32767 32767 
46 98 32767 39 93 32767 32767 19 32767 32767 5 55 60 32767 39 32767 
55 42 32767 6 32767 32767 32767 32767 94 32767 32767 32767 89 32767 32767 78 
32767 30 17 32767 95 19 32767 32767 72 32767 34 32767 32767 91 32767 32767 
32767 43 95 3 32767 32767 94 72 32767 77 22 51 32767 32767 8 28 
32767 32767 1 3 32767 32767 32767 32767 77 32767 32767 60 32767 32767 32767 32767 
1 32767 32767 32767 32767 5 32767 34 22 32767 32767 32767 34 32767 67 30 
32767 83 83 32767 12 55 32767 32767 51 60 32767 32767 32767 52 32767 29 
43 32767 32767 32767 32767 60 89 32767 32767 32767 34 32767 32767 32767 32767 55 
32767 32767 32767 56 32767 32767 32767 91 32767 32767 32767 52 32767 32767 19 82 
78 32767 32767 32767 32767 39 32767 32767 8 32767 67 32767 32767 19 32767 77 
32767 87 47 32767 32767 32767 78 32767 28 32767 30 29 55 82 77 32767 
EOF